c read Graph
c width = 36
c time = 76 ms
c width = 8
c time = 122 ms
c width = 7
c time = 414 ms
c width = 7
c time = 4904 ms
s td 42 8 49
b 1 1 2 8
b 2 2 3 8 9
b 3 5 6 13 14
b 4 3 8 9 15
b 5 5 13 14 21
b 6 29 36 37 44
b 7 35 41 42 48
b 8 29 37 44 45
b 9 35 41 47 48
b 10 3 4 5 11
b 11 3 5 10 11 16 22
b 12 3 10 15 16 22
b 13 3 9 10 15 16
b 14 28 34 40 46 47
b 15 5 10 11 16 17 22
b 16 5 11 16 17 22 23
b 17 20 26 27 28 34
b 18 26 32 33 34 40
b 19 18 24 25 26 32
b 20 24 30 31 32 38
b 21 20 26 28 32 34 40 46
b 22 20 26 28 32 38 40 46
b 23 5 11 12 17 18 22 23
b 24 5 12 17 18 22 23 24
b 25 5 12 18 22 23 24 30
b 26 5 12 18 20 22 24 28 30
b 27 12 18 20 22 24 26 28 30
b 28 18 20 22 24 26 28 30 32
b 29 20 22 24 26 28 30 32 38
b 30 20 22 26 28 30 32 38 46
b 31 22 30 38 45 46
b 32 22 29 30 38 45
b 33 29 30 37 38 45
b 34 32 38 39 40 46
b 35 28 34 35 40 47
b 36 34 35 40 41 47
b 37 5 12 20 21 28
b 38 5 12 13 20 21
b 39 12 18 19 20 26
b 40 42 48 49
b 41 36 43 44
b 42 6 7 14
1 2
2 4
3 42
3 5
4 13
5 38
6 41
6 8
7 40
7 9
8 33
9 36
10 11
11 15
11 12
12 13
14 35
14 21
15 16
16 23
17 21
18 21
19 28
20 29
21 22
22 34
22 30
23 24
24 25
25 26
26 37
26 27
27 39
27 28
28 29
29 30
30 31
31 32
32 33
35 36
37 38
